
#(C) 2025 by FIZ Karlsruhe - Leibniz Institute for Information Infrastructure.  All rights reserved.
data_80279-ICSD
_database_code_ICSD 80279
_audit_creation_date 1996-10-14
_audit_update_record 2002-04-01
_chemical_name_common 'Tetralantanum decaoxotriniccolate'
_chemical_formula_structural 'La4 (Ni3 O10)'
_chemical_formula_sum 'La4 Ni3 O10'
_chemical_name_structure_type Ba4Zr3S10
_exptl_crystal_density_diffrn 7.16
_citation_title
'Synthesis, structure and properties of Ln4 Ni3 O10-d (Ln=La,Pr and Nd)'
loop_
_citation_id
_citation_journal_full
_citation_year
_citation_journal_volume
_citation_page_first
_citation_page_last
_citation_journal_id_ASTM
primary 'Journal of Solid State Chemistry' 1995 117 236 246 JSSCBI
loop_
_citation_author_citation_id
_citation_author_name
primary 'Zhang, Z.'
primary 'Greenblatt, M.'
_cell_length_a 5.415(1)
_cell_length_b 5.465(1)
_cell_length_c 27.959(9)
_cell_angle_alpha 90.
_cell_angle_beta 90.
_cell_angle_gamma 90.
_cell_volume 827.39
_cell_formula_units_Z 4
_space_group_name_H-M_alt 'F m m m'
_space_group_IT_number 69
loop_
_space_group_symop_id
_space_group_symop_operation_xyz
1 'x, y, -z'
2 'x, -y, z'
3 '-x, y, z'
4 '-x, -y, -z'
5 '-x, -y, z'
6 '-x, y, -z'
7 'x, -y, -z'
8 'x, y, z'
9 'x, y+1/2, -z+1/2'
10 'x, -y+1/2, z+1/2'
11 '-x, y+1/2, z+1/2'
12 '-x, -y+1/2, -z+1/2'
13 '-x, -y+1/2, z+1/2'
14 '-x, y+1/2, -z+1/2'
15 'x, -y+1/2, -z+1/2'
16 'x, y+1/2, z+1/2'
17 'x+1/2, y, -z+1/2'
18 'x+1/2, -y, z+1/2'
19 '-x+1/2, y, z+1/2'
20 '-x+1/2, -y, -z+1/2'
21 '-x+1/2, -y, z+1/2'
22 '-x+1/2, y, -z+1/2'
23 'x+1/2, -y, -z+1/2'
24 'x+1/2, y, z+1/2'
25 'x+1/2, y+1/2, -z'
26 'x+1/2, -y+1/2, z'
27 '-x+1/2, y+1/2, z'
28 '-x+1/2, -y+1/2, -z'
29 '-x+1/2, -y+1/2, z'
30 '-x+1/2, y+1/2, -z'
31 'x+1/2, -y+1/2, -z'
32 'x+1/2, y+1/2, z'
loop_
_atom_type_symbol
_atom_type_oxidation_number
La3+ 3
Ni3+ 2.667
O2- -2
loop_
_atom_site_label
_atom_site_type_symbol
_atom_site_symmetry_multiplicity
_atom_site_Wyckoff_symbol
_atom_site_fract_x
_atom_site_fract_y
_atom_site_fract_z
_atom_site_B_iso_or_equiv
_atom_site_occupancy
La1 La3+ 8 i 0 0 0.431 . 1.
La2 La3+ 8 i 0 0 0.298 . 1.
Ni1 Ni3+ 4 a 0 0 0 . 1.
Ni2 Ni3+ 8 i 0 0 0.139 . 1.
O1 O2- 8 e 0.25 0.25 0 . 1.
O2 O2- 8 i 0 0 0.07 . 1.
O3 O2- 16 j 0.25 0.25 0.14 . 1.
O4 O2- 8 i 0 0 0.21 . 1.
#End of TTdata_80279-ICSD