
#(C) 2025 by FIZ Karlsruhe - Leibniz Institute for Information Infrastructure.  All rights reserved.
data_78038-ICSD
_database_code_ICSD 78038
_audit_creation_date 1995-10-17
_audit_update_record 2002-04-01
_chemical_name_common 'Lanthanum nickel oxide (3/2/6.92)'
_chemical_formula_structural 'La3 Ni2 O6.92'
_chemical_formula_sum 'La3 Ni2 O6.92'
_chemical_name_structure_type SrLa2Sc2O7
_exptl_crystal_density_diffrn 7.1
_citation_title

;
Synthesis, structure, and properties of the layered perovskite La3 Ni2
O7-delta
;
loop_
_citation_id
_citation_journal_full
_citation_year
_citation_journal_volume
_citation_page_first
_citation_page_last
_citation_journal_id_ASTM
primary 'Journal of Solid State Chemistry' 1994 108 402 409 JSSCBI
loop_
_citation_author_citation_id
_citation_author_name
primary 'Zhang, Z.'
primary 'Greenblatt, M.'
primary 'Goodenough, J.B.'
_cell_length_a 5.3961(6)
_cell_length_b 5.4498(5)
_cell_length_c 20.5220(20)
_cell_angle_alpha 90.
_cell_angle_beta 90.
_cell_angle_gamma 90.
_cell_volume 603.5
_cell_formula_units_Z 4
_space_group_name_H-M_alt 'F m m m'
_space_group_IT_number 69
loop_
_space_group_symop_id
_space_group_symop_operation_xyz
1 'x, y, -z'
2 'x, -y, z'
3 '-x, y, z'
4 '-x, -y, -z'
5 '-x, -y, z'
6 '-x, y, -z'
7 'x, -y, -z'
8 'x, y, z'
9 'x, y+1/2, -z+1/2'
10 'x, -y+1/2, z+1/2'
11 '-x, y+1/2, z+1/2'
12 '-x, -y+1/2, -z+1/2'
13 '-x, -y+1/2, z+1/2'
14 '-x, y+1/2, -z+1/2'
15 'x, -y+1/2, -z+1/2'
16 'x, y+1/2, z+1/2'
17 'x+1/2, y, -z+1/2'
18 'x+1/2, -y, z+1/2'
19 '-x+1/2, y, z+1/2'
20 '-x+1/2, -y, -z+1/2'
21 '-x+1/2, -y, z+1/2'
22 '-x+1/2, y, -z+1/2'
23 'x+1/2, -y, -z+1/2'
24 'x+1/2, y, z+1/2'
25 'x+1/2, y+1/2, -z'
26 'x+1/2, -y+1/2, z'
27 '-x+1/2, y+1/2, z'
28 '-x+1/2, -y+1/2, -z'
29 '-x+1/2, -y+1/2, z'
30 '-x+1/2, y+1/2, -z'
31 'x+1/2, -y+1/2, -z'
32 'x+1/2, y+1/2, z'
loop_
_atom_type_symbol
_atom_type_oxidation_number
La3+ 3
Ni2+ 2.42
O2- -2
loop_
_atom_site_label
_atom_site_type_symbol
_atom_site_symmetry_multiplicity
_atom_site_Wyckoff_symbol
_atom_site_fract_x
_atom_site_fract_y
_atom_site_fract_z
_atom_site_B_iso_or_equiv
_atom_site_occupancy
La1 La3+ 4 b 0 0 0.5 . 1.
La2 La3+ 8 i 0 0 0.3148(3) . 1.
Ni1 Ni2+ 8 i 0 0 0.0971(7) . 1.
O1 O2- 4 a 0 0 0 . 0.92
O2 O2- 8 i 0 0 0.190(2) . 1.
O3 O2- 16 j -0.25 0.25 0.096(2) . 1.
#End of TTdata_78038-ICSD