
#(C) 2025 by FIZ Karlsruhe - Leibniz Institute for Information Infrastructure.  All rights reserved.
data_434014-ICSD
_database_code_ICSD 434014
_audit_creation_date 2018-02-01
_audit_update_record 2020-02-01
_chemical_name_common 'Lanthanum nickelate(III)'
_chemical_formula_structural 'La Ni O3'
_chemical_formula_sum 'La1 Ni1 O3'
_chemical_name_structure_type LaAlO3
_exptl_crystal_density_diffrn 7.2
_diffrn_ambient_temperature 293.
_citation_title

;
Antiferromagnetic correlations in the metallic strongly correlated transition
metal oxide LaNiO3
;
loop_
_citation_id
_citation_journal_full
_citation_year
_citation_journal_volume
_citation_page_first
_citation_page_last
_citation_journal_id_ASTM
primary 'Nature Communications' 2018 9 1 7 NCAOBW
loop_
_citation_author_citation_id
_citation_author_name
primary 'Guo, H.'
primary 'Li, Z.W.'
primary 'Zhao, L.'
primary 'Hu, Z.'
primary 'Chang, C.F.'
primary 'Kuo, C.Y.'
primary 'Schmidt, W.'
primary 'Piovano, A.'
primary 'Pi, T.W.'
primary 'Sobolev, O.'
primary 'Khomskii, D.I.'
primary 'Tjeng, L.H.'
primary 'Komarek, A.C.'
_cell_length_a 5.46393(79)
_cell_length_b 5.46393(79)
_cell_length_c 13.14459(243)
_cell_angle_alpha 90
_cell_angle_beta 90
_cell_angle_gamma 120
_cell_volume 339.85
_cell_formula_units_Z 6
_space_group_name_H-M_alt 'R -3 c H'
_space_group_IT_number 167
loop_
_space_group_symop_id
_space_group_symop_operation_xyz
1 'x-y, -y, -z+1/2'
2 '-x, -x+y, -z+1/2'
3 'y, x, -z+1/2'
4 'x-y, x, -z'
5 'y, -x+y, -z'
6 '-x, -y, -z'
7 '-x+y, y, z+1/2'
8 'x, x-y, z+1/2'
9 '-y, -x, z+1/2'
10 '-x+y, -x, z'
11 '-y, x-y, z'
12 'x, y, z'
13 'x-y+2/3, -y+1/3, -z+5/6'
14 '-x+2/3, -x+y+1/3, -z+5/6'
15 'y+2/3, x+1/3, -z+5/6'
16 'x-y+2/3, x+1/3, -z+1/3'
17 'y+2/3, -x+y+1/3, -z+1/3'
18 '-x+2/3, -y+1/3, -z+1/3'
19 '-x+y+2/3, y+1/3, z+5/6'
20 'x+2/3, x-y+1/3, z+5/6'
21 '-y+2/3, -x+1/3, z+5/6'
22 '-x+y+2/3, -x+1/3, z+1/3'
23 '-y+2/3, x-y+1/3, z+1/3'
24 'x+2/3, y+1/3, z+1/3'
25 'x-y+1/3, -y+2/3, -z+1/6'
26 '-x+1/3, -x+y+2/3, -z+1/6'
27 'y+1/3, x+2/3, -z+1/6'
28 'x-y+1/3, x+2/3, -z+2/3'
29 'y+1/3, -x+y+2/3, -z+2/3'
30 '-x+1/3, -y+2/3, -z+2/3'
31 '-x+y+1/3, y+2/3, z+1/6'
32 'x+1/3, x-y+2/3, z+1/6'
33 '-y+1/3, -x+2/3, z+1/6'
34 '-x+y+1/3, -x+2/3, z+2/3'
35 '-y+1/3, x-y+2/3, z+2/3'
36 'x+1/3, y+2/3, z+2/3'
loop_
_atom_type_symbol
_atom_type_oxidation_number
La3+ 3
Ni3+ 3
O2- -2
loop_
_atom_site_label
_atom_site_type_symbol
_atom_site_symmetry_multiplicity
_atom_site_Wyckoff_symbol
_atom_site_fract_x
_atom_site_fract_y
_atom_site_fract_z
_atom_site_U_iso_or_equiv
_atom_site_occupancy
La1 La3+ 6 a 0 0 0.25 0.00616(7) 0.995(12)
Ni1 Ni3+ 6 b 0 0 0 0.00388(13) 1.000(14)
O1 O2- 18 e 0.5457(4) 0 0.25 0.0082(6) 1
loop_
_atom_site_aniso_label
_atom_site_aniso_type_symbol
_atom_site_aniso_U_11
_atom_site_aniso_U_22
_atom_site_aniso_U_33
_atom_site_aniso_U_12
_atom_site_aniso_U_13
_atom_site_aniso_U_23
La1 La3+ 0.00523(7) 0.00523(7) 0.00803(16) 0.00261(3) 0 0
Ni1 Ni3+ 0.00304(13) 0.00304(13) 0.0055(3) 0.00152(7) 0 0
O1 O2- 0.0077(5) 0.0077(9) 0.0093(11) 0.0038(5) -0.0015(4) -0.0029(7)
#End of TTdata_434014-ICSD